% Generated FlatZinc statistics:
%%%mzn-stat: paths=0
%%%mzn-stat: flatBoolVars=462
%%%mzn-stat: flatIntVars=6612
%%%mzn-stat: flatIntConstraints=12782
%%%mzn-stat: evaluatedReifiedConstraints=4241
%%%mzn-stat: evaluatedHalfReifiedConstraints=1134
%%%mzn-stat: method="minimize"
%%%mzn-stat: flatTime=0.60039
%%%mzn-stat-end
%%%mzn-stat: objective=14344
%%%mzn-stat: objectiveBound=5705
%%%mzn-stat: nodes=1514
%%%mzn-stat: solveTime=59.4080
%%%mzn-stat-end
end = 88
carga_por_operario = [81, 81]
desbalance = 0
Job 1:  11(op:1)  19(op:2)  28(op:1)  49(op:1)  57(op:2)
Job 2:  19(op:1)  34(op:2)  51(op:1)  57(op:1)  62(op:2)
Job 3:   4(op:1)  27(op:2)  42(op:2)  47(op:1)  67(op:1)
Job 4:   2(op:1)   5(op:2)  11(op:2)  41(op:1)  74(op:2)
Job 5:  37(op:1)  46(op:2)  76(op:2)  80(op:2)  87(op:1)
Job 6:   9(op:1)  62(op:1)  66(op:2)  74(op:1)  85(op:1)
Job 7:   0(op:1)  16(op:1)  32(op:1)  51(op:2)  77(op:1)
----------
%%%mzn-stat: objective=14344
%%%mzn-stat: objectiveBound=5705
%%%mzn-stat: nodes=1514
%%%mzn-stat: solveTime=59.4080
%%%mzn-stat-end
%%%mzn-stat: nSolutions=1
%%%mzn-stat-end
